105
150
120	4
119	2
118	4
117	3
116	5
115	2
114	2
113	2
112	1
111	8
110	4
109	3
108	1
107	4
106	4
105	7
104	7
103	2
101	5
100	4
99	6
98	5
97	3
96	5
95	3
94	4
93	8
92	5
91	2
90	1
89	3
88	4
87	5
86	6
85	5
84	1
83	8
82	3
81	6
80	1
79	3
78	7
77	5
76	2
75	3
74	5
73	1
72	4
71	6
70	2
69	2
68	1
67	3
66	2
65	5
64	3
63	8
62	2
61	3
60	3
59	2
58	4
57	4
56	6
55	2
54	6
53	2
52	3
51	1
50	4
49	3
48	3
47	3
46	2
45	3
44	3
43	2
42	2
41	8
40	3
39	7
38	1
37	6
36	7
35	1
34	9
33	7
32	2
31	5
30	5
29	3
28	4
27	5
26	3
25	6
24	3
23	6
22	1
21	3
20	4
19	2
18	5
17	2
16	6
15	3
